(set-info :status unknown)
(declare-fun C2 () (_ BitVec 40))
(declare-fun %X () (_ BitVec 40))
(declare-fun C1 () (_ BitVec 40))
(assert
 (let ((?x9226 (ite (bvsge %X C2) (_ bv1 1) (_ bv0 1))))
 (let ((?x6326 (ite (bvslt %X C1) (_ bv1 1) (_ bv0 1))))
 (let (($x17302 (and (distinct (bvor ?x6326 ?x9226) (ite (bvsgt %X (bvsub C2 (_ bv1 40))) (_ bv1 1) (_ bv0 1))) true)))
 (and (bvsle C1 C2) (and (distinct C1 C2) true) (= C1 (bvshl (_ bv1 40) (bvsub (_ bv40 40) (_ bv1 40)))) $x17302)))))
(check-sat)
